(set-info :smt-lib-version 2.6)
(set-logic UF)
(set-info :source |Benchmarks from the paper: "Extending Sledgehammer with SMT Solvers" by Jasmin Blanchette, Sascha Bohme, and Lawrence C. Paulson, CADE 2011.  Translated to SMT2 by Andrew Reynolds and Morgan Deters.|)
(set-info :category "industrial")
(set-info :status sat)
(declare-sort S1 0)
(declare-sort S2 0)
(declare-sort S3 0)
(declare-sort S4 0)
(declare-sort S5 0)
(declare-sort S6 0)
(declare-sort S7 0)
(declare-sort S8 0)
(declare-sort S9 0)
(declare-sort S10 0)
(declare-sort S11 0)
(declare-sort S12 0)
(declare-sort S13 0)
(declare-sort S14 0)
(declare-sort S15 0)
(declare-sort S16 0)
(declare-sort S17 0)
(declare-sort S18 0)
(declare-sort S19 0)
(declare-sort S20 0)
(declare-sort S21 0)
(declare-sort S22 0)
(declare-sort S23 0)
(declare-sort S24 0)
(declare-sort S25 0)
(declare-sort S26 0)
(declare-sort S27 0)
(declare-sort S28 0)
(declare-sort S29 0)
(declare-sort S30 0)
(declare-sort S31 0)
(declare-sort S32 0)
(declare-sort S33 0)
(declare-sort S34 0)
(declare-fun f1 () S1)
(declare-fun f2 () S1)
(declare-fun f3 (S3 S2) S4)
(declare-fun f4 () S3)
(declare-fun f5 () S4)
(declare-fun f6 (S5 S2) S6)
(declare-fun f7 () S5)
(declare-fun f8 () S6)
(declare-fun f9 (S7 S8 S3 S5) S1)
(declare-fun f10 () S7)
(declare-fun f11 () S8)
(declare-fun f12 () S3)
(declare-fun f13 (S9 S6) S5)
(declare-fun f14 (S10 S2) S9)
(declare-fun f15 (S11 S5) S10)
(declare-fun f16 () S11)
(declare-fun f17 () S5)
(declare-fun f18 () S2)
(declare-fun f19 (S12 S13) S6)
(declare-fun f20 () S12)
(declare-fun f21 () S13)
(declare-fun f22 (S2 S14) S1)
(declare-fun f23 () S14)
(declare-fun f24 () S3)
(declare-fun f25 (S15 S4) S3)
(declare-fun f26 (S16 S2) S15)
(declare-fun f27 (S17 S3) S16)
(declare-fun f28 () S17)
(declare-fun f29 (S19 S18) S4)
(declare-fun f30 () S19)
(declare-fun f31 () S8)
(declare-fun f32 (S7 S8 S5 S14 S13) S1)
(declare-fun f33 (S20 S14) S14)
(declare-fun f34 (S21 S13) S20)
(declare-fun f35 (S22 S2) S21)
(declare-fun f36 () S22)
(declare-fun f37 () S13)
(declare-fun f38 (S23 S24) S1)
(declare-fun f39 (S25 S26) S23)
(declare-fun f40 (S27 S26) S25)
(declare-fun f41 () S27)
(declare-fun f42 (S28 S29) S26)
(declare-fun f43 (S30 S14) S28)
(declare-fun f44 () S30)
(declare-fun f45 (S31 S3) S29)
(declare-fun f46 (S32 S8) S31)
(declare-fun f47 () S32)
(declare-fun f48 () S14)
(declare-fun f49 (S7) S24)
(declare-fun f50 (S3 S3) S1)
(declare-fun f51 (S5 S5) S1)
(declare-fun f52 (S7 S8) S1)
(declare-fun f53 (S24 S23) S1)
(declare-fun f54 (S33 S26) S1)
(declare-fun f55 (S34 S29) S1)
(assert (not (= f1 f2)))
(assert (forall ((?v0 S2)) (= (f3 f4 ?v0) f5)))
(assert (forall ((?v0 S2)) (= (f6 f7 ?v0) f8)))
(assert (not (= (f9 f10 f11 f12 (f13 (f14 (f15 f16 f17) f18) (f19 f20 f21))) f1)))
(assert (= (f3 f12 f18) f5))
(assert (not (= (f22 f18 f23) f1)))
(assert (= (f9 f10 f11 f24 f17) f1))
(assert (forall ((?v0 S5) (?v1 S2)) (= (f13 (f14 (f15 f16 ?v0) ?v1) (f6 ?v0 ?v1)) ?v0)))
(assert (forall ((?v0 S3) (?v1 S2)) (= (f25 (f26 (f27 f28 ?v0) ?v1) (f3 ?v0 ?v1)) ?v0)))
(assert (forall ((?v0 S5) (?v1 S2) (?v2 S13) (?v3 S2) (?v4 S13)) (let ((?v_1 (f19 f20 ?v4)) (?v_0 (= ?v3 ?v1))) (= (= (f6 (f13 (f14 (f15 f16 ?v0) ?v1) (f19 f20 ?v2)) ?v3) ?v_1) (or (and ?v_0 (= ?v2 ?v4)) (and (not ?v_0) (= (f6 ?v0 ?v3) ?v_1)))))))
(assert (forall ((?v0 S3) (?v1 S2) (?v2 S18) (?v3 S2) (?v4 S18)) (let ((?v_1 (f29 f30 ?v4)) (?v_0 (= ?v3 ?v1))) (= (= (f3 (f25 (f26 (f27 f28 ?v0) ?v1) (f29 f30 ?v2)) ?v3) ?v_1) (or (and ?v_0 (= ?v2 ?v4)) (and (not ?v_0) (= (f3 ?v0 ?v3) ?v_1)))))))
(assert (forall ((?v0 S5) (?v1 S2) (?v2 S13)) (let ((?v_0 (f19 f20 ?v2))) (=> (= (f6 ?v0 ?v1) ?v_0) (= (f13 (f14 (f15 f16 ?v0) ?v1) ?v_0) ?v0)))))
(assert (forall ((?v0 S3) (?v1 S2) (?v2 S18)) (let ((?v_0 (f29 f30 ?v2))) (=> (= (f3 ?v0 ?v1) ?v_0) (= (f25 (f26 (f27 f28 ?v0) ?v1) ?v_0) ?v0)))))
(assert (forall ((?v0 S5) (?v1 S2) (?v2 S13) (?v3 S5) (?v4 S13)) (=> (= (f13 (f14 (f15 f16 ?v0) ?v1) (f19 f20 ?v2)) (f13 (f14 (f15 f16 ?v3) ?v1) (f19 f20 ?v4))) (= ?v2 ?v4))))
(assert (forall ((?v0 S3) (?v1 S2) (?v2 S18) (?v3 S3) (?v4 S18)) (=> (= (f25 (f26 (f27 f28 ?v0) ?v1) (f29 f30 ?v2)) (f25 (f26 (f27 f28 ?v3) ?v1) (f29 f30 ?v4))) (= ?v2 ?v4))))
(assert (= (f9 f10 f31 f24 f17) f1))
(assert (forall ((?v0 S5) (?v1 S2) (?v2 S6)) (= (= (f13 (f14 (f15 f16 ?v0) ?v1) ?v2) ?v0) (= (f6 ?v0 ?v1) ?v2))))
(assert (forall ((?v0 S3) (?v1 S2) (?v2 S4)) (= (= (f25 (f26 (f27 f28 ?v0) ?v1) ?v2) ?v0) (= (f3 ?v0 ?v1) ?v2))))
(assert (forall ((?v0 S5) (?v1 S2) (?v2 S6) (?v3 S6)) (let ((?v_0 (f14 (f15 f16 ?v0) ?v1))) (= (f13 (f14 (f15 f16 (f13 ?v_0 ?v2)) ?v1) ?v3) (f13 ?v_0 ?v3)))))
(assert (forall ((?v0 S3) (?v1 S2) (?v2 S4) (?v3 S4)) (let ((?v_0 (f26 (f27 f28 ?v0) ?v1))) (= (f25 (f26 (f27 f28 (f25 ?v_0 ?v2)) ?v1) ?v3) (f25 ?v_0 ?v3)))))
(assert (forall ((?v0 S5) (?v1 S2) (?v2 S6)) (= (f6 (f13 (f14 (f15 f16 ?v0) ?v1) ?v2) ?v1) ?v2)))
(assert (forall ((?v0 S3) (?v1 S2) (?v2 S4)) (= (f3 (f25 (f26 (f27 f28 ?v0) ?v1) ?v2) ?v1) ?v2)))
(assert (forall ((?v0 S5) (?v1 S2) (?v2 S6) (?v3 S2)) (= (f6 (f13 (f14 (f15 f16 ?v0) ?v1) ?v2) ?v3) (ite (= ?v3 ?v1) ?v2 (f6 ?v0 ?v3)))))
(assert (forall ((?v0 S3) (?v1 S2) (?v2 S4) (?v3 S2)) (= (f3 (f25 (f26 (f27 f28 ?v0) ?v1) ?v2) ?v3) (ite (= ?v3 ?v1) ?v2 (f3 ?v0 ?v3)))))
(assert (forall ((?v0 S2) (?v1 S2) (?v2 S5) (?v3 S6) (?v4 S6)) (let ((?v_0 (f15 f16 ?v2))) (=> (not (= ?v0 ?v1)) (= (f13 (f14 (f15 f16 (f13 (f14 ?v_0 ?v0) ?v3)) ?v1) ?v4) (f13 (f14 (f15 f16 (f13 (f14 ?v_0 ?v1) ?v4)) ?v0) ?v3))))))
(assert (forall ((?v0 S2) (?v1 S2) (?v2 S3) (?v3 S4) (?v4 S4)) (let ((?v_0 (f27 f28 ?v2))) (=> (not (= ?v0 ?v1)) (= (f25 (f26 (f27 f28 (f25 (f26 ?v_0 ?v0) ?v3)) ?v1) ?v4) (f25 (f26 (f27 f28 (f25 (f26 ?v_0 ?v1) ?v4)) ?v0) ?v3))))))
(assert (forall ((?v0 S5) (?v1 S2) (?v2 S13)) (not (= (f13 (f14 (f15 f16 ?v0) ?v1) (f19 f20 ?v2)) f7))))
(assert (forall ((?v0 S3) (?v1 S2) (?v2 S18)) (not (= (f25 (f26 (f27 f28 ?v0) ?v1) (f29 f30 ?v2)) f4))))
(assert (forall ((?v0 S5) (?v1 S2) (?v2 S6) (?v3 S2)) (= (f6 (f13 (f14 (f15 f16 ?v0) ?v1) ?v2) ?v3) (ite (= ?v3 ?v1) ?v2 (f6 ?v0 ?v3)))))
(assert (forall ((?v0 S3) (?v1 S2) (?v2 S4) (?v3 S2)) (= (f3 (f25 (f26 (f27 f28 ?v0) ?v1) ?v2) ?v3) (ite (= ?v3 ?v1) ?v2 (f3 ?v0 ?v3)))))
(assert (forall ((?v0 S5) (?v1 S2) (?v2 S6)) (=> (= (f6 ?v0 ?v1) ?v2) (= (f13 (f14 (f15 f16 ?v0) ?v1) ?v2) ?v0))))
(assert (forall ((?v0 S3) (?v1 S2) (?v2 S4)) (=> (= (f3 ?v0 ?v1) ?v2) (= (f25 (f26 (f27 f28 ?v0) ?v1) ?v2) ?v0))))
(assert (forall ((?v0 S2) (?v1 S2) (?v2 S5) (?v3 S6)) (=> (not (= ?v0 ?v1)) (= (f6 (f13 (f14 (f15 f16 ?v2) ?v1) ?v3) ?v0) (f6 ?v2 ?v0)))))
(assert (forall ((?v0 S2) (?v1 S2) (?v2 S3) (?v3 S4)) (=> (not (= ?v0 ?v1)) (= (f3 (f25 (f26 (f27 f28 ?v2) ?v1) ?v3) ?v0) (f3 ?v2 ?v0)))))
(assert (forall ((?v0 S5) (?v1 S13)) (=> (= (f32 f10 f31 ?v0 f23 ?v1) f1) (=> (= (f9 f10 f31 (f25 (f26 (f27 f28 f24) f18) f5) ?v0) f1) (= (f9 f10 f11 f12 ?v0) f1)))))
(assert (= (f9 f10 f31 f24 f17) f1))
(assert (= (f32 f10 f31 f17 (f33 (f34 (f35 f36 f18) f21) f23) f37) f1))
(assert (forall ((?v0 S6)) (= (not (= ?v0 f8)) (exists ((?v1 S13)) (= ?v0 (f19 f20 ?v1))))))
(assert (forall ((?v0 S4)) (= (not (= ?v0 f5)) (exists ((?v1 S18)) (= ?v0 (f29 f30 ?v1))))))
(assert (forall ((?v0 S6)) (= (forall ((?v1 S13)) (not (= ?v0 (f19 f20 ?v1)))) (= ?v0 f8))))
(assert (forall ((?v0 S4)) (= (forall ((?v1 S18)) (not (= ?v0 (f29 f30 ?v1)))) (= ?v0 f5))))
(assert (forall ((?v0 S13)) (not (= (f19 f20 ?v0) f8))))
(assert (forall ((?v0 S18)) (not (= (f29 f30 ?v0) f5))))
(assert (forall ((?v0 S13)) (not (= f8 (f19 f20 ?v0)))))
(assert (forall ((?v0 S18)) (not (= f5 (f29 f30 ?v0)))))
(assert (forall ((?v0 S5) (?v1 S13)) (=> (= (f32 f10 f31 ?v0 f23 ?v1) f1) (=> (= (f9 f10 f31 (f25 (f26 (f27 f28 f24) f18) f5) ?v0) f1) (= (f9 f10 f11 f12 ?v0) f1)))))
(assert (= (f38 (f39 (f40 f41 (f42 (f43 f44 f23) (f45 (f46 f47 f31) (f25 (f26 (f27 f28 f24) f18) f5)))) (f42 (f43 f44 f48) (f45 (f46 f47 f11) f12))) (f49 f10)) f1))
(assert (forall ((?v0 S3) (?v1 S3) (?v2 S2) (?v3 S18)) (=> (= (f50 ?v0 ?v1) f1) (= (f50 (f25 (f26 (f27 f28 ?v0) ?v2) f5) (f25 (f26 (f27 f28 ?v1) ?v2) (f29 f30 ?v3))) f1))))
(assert (forall ((?v0 S5) (?v1 S5) (?v2 S2) (?v3 S13)) (=> (= (f51 ?v0 ?v1) f1) (= (f51 (f13 (f14 (f15 f16 ?v0) ?v2) f8) (f13 (f14 (f15 f16 ?v1) ?v2) (f19 f20 ?v3))) f1))))
(assert (= (f32 f10 f31 f17 (f33 (f34 (f35 f36 f18) f21) f23) f37) f1))
(assert (forall ((?v0 S3)) (= (f50 ?v0 ?v0) f1)))
(assert (forall ((?v0 S5)) (= (f51 ?v0 ?v0) f1)))
(assert (forall ((?v0 S3)) (= (f50 f4 ?v0) f1)))
(assert (forall ((?v0 S5)) (= (f51 f7 ?v0) f1)))
(assert (forall ((?v0 S3) (?v1 S3)) (=> (= (f50 ?v0 ?v1) f1) (=> (= (f50 ?v1 ?v0) f1) (= ?v0 ?v1)))))
(assert (forall ((?v0 S5) (?v1 S5)) (=> (= (f51 ?v0 ?v1) f1) (=> (= (f51 ?v1 ?v0) f1) (= ?v0 ?v1)))))
(assert (forall ((?v0 S3) (?v1 S3) (?v2 S3)) (=> (= (f50 ?v0 ?v1) f1) (=> (= (f50 ?v1 ?v2) f1) (= (f50 ?v0 ?v2) f1)))))
(assert (forall ((?v0 S5) (?v1 S5) (?v2 S5)) (=> (= (f51 ?v0 ?v1) f1) (=> (= (f51 ?v1 ?v2) f1) (= (f51 ?v0 ?v2) f1)))))
(assert (forall ((?v0 S2) (?v1 S2)) (= (f6 (f13 (f14 (f15 f16 f7) ?v0) f8) ?v1) f8)))
(assert (forall ((?v0 S2) (?v1 S2)) (= (f3 (f25 (f26 (f27 f28 f4) ?v0) f5) ?v1) f5)))
(assert (forall ((?v0 S3) (?v1 S3) (?v2 S2) (?v3 S4)) (=> (= (f50 ?v0 ?v1) f1) (= (f50 (f25 (f26 (f27 f28 ?v0) ?v2) ?v3) (f25 (f26 (f27 f28 ?v1) ?v2) ?v3)) f1))))
(assert (forall ((?v0 S5) (?v1 S5) (?v2 S2) (?v3 S6)) (=> (= (f51 ?v0 ?v1) f1) (= (f51 (f13 (f14 (f15 f16 ?v0) ?v2) ?v3) (f13 (f14 (f15 f16 ?v1) ?v2) ?v3)) f1))))
(assert (forall ((?v0 S3) (?v1 S2)) (= (f50 (f25 (f26 (f27 f28 ?v0) ?v1) f5) ?v0) f1)))
(assert (forall ((?v0 S5) (?v1 S2)) (= (f51 (f13 (f14 (f15 f16 ?v0) ?v1) f8) ?v0) f1)))
(assert (forall ((?v0 S18) (?v1 S18)) (= (= (f29 f30 ?v0) (f29 f30 ?v1)) (= ?v0 ?v1))))
(assert (forall ((?v0 S13) (?v1 S13)) (= (= (f19 f20 ?v0) (f19 f20 ?v1)) (= ?v0 ?v1))))
(assert (forall ((?v0 S7) (?v1 S8) (?v2 S5) (?v3 S2) (?v4 S13) (?v5 S14) (?v6 S13)) (=> (= (f32 ?v0 ?v1 (f13 (f14 (f15 f16 ?v2) ?v3) (f19 f20 ?v4)) ?v5 ?v6) f1) (= (f32 ?v0 ?v1 ?v2 (f33 (f34 (f35 f36 ?v3) ?v4) ?v5) ?v6) f1))))
(assert (forall ((?v0 S14) (?v1 S8) (?v2 S3) (?v3 S2) (?v4 S14) (?v5 S8) (?v6 S3) (?v7 S7) (?v8 S13)) (let ((?v_0 (f46 f47 ?v1)) (?v_2 (f46 f47 ?v5)) (?v_3 (f49 ?v7)) (?v_1 (f34 (f35 f36 ?v3) ?v8))) (=> (= (f38 (f39 (f40 f41 (f42 (f43 f44 ?v0) (f45 ?v_0 (f25 (f26 (f27 f28 ?v2) ?v3) f5)))) (f42 (f43 f44 ?v4) (f45 ?v_2 ?v6))) ?v_3) f1) (=> (= (f3 ?v6 ?v3) f5) (=> (not (= (f22 ?v3 ?v0) f1)) (= (f38 (f39 (f40 f41 (f42 (f43 f44 (f33 ?v_1 ?v0)) (f45 ?v_0 ?v2))) (f42 (f43 f44 (f33 ?v_1 ?v4)) (f45 ?v_2 (f25 (f26 (f27 f28 ?v6) ?v3) (f3 ?v2 ?v3))))) ?v_3) f1)))))))
(assert (forall ((?v0 S7) (?v1 S8) (?v2 S5)) (= (f9 ?v0 ?v1 f4 ?v2) f1)))
(assert (forall ((?v0 S14) (?v1 S8) (?v2 S3) (?v3 S14) (?v4 S8) (?v5 S3) (?v6 S7) (?v7 S5) (?v8 S13)) (=> (= (f38 (f39 (f40 f41 (f42 (f43 f44 ?v0) (f45 (f46 f47 ?v1) ?v2))) (f42 (f43 f44 ?v3) (f45 (f46 f47 ?v4) ?v5))) (f49 ?v6)) f1) (=> (= (f32 ?v6 ?v1 ?v7 ?v0 ?v8) f1) (=> (= (f52 ?v6 ?v1) f1) (= (f52 ?v6 ?v4) f1))))))
(assert (forall ((?v0 S6)) (=> (=> (= ?v0 f8) false) (=> (forall ((?v1 S13)) (=> (= ?v0 (f19 f20 ?v1)) false)) false))))
(assert (forall ((?v0 S4)) (=> (=> (= ?v0 f5) false) (=> (forall ((?v1 S18)) (=> (= ?v0 (f29 f30 ?v1)) false)) false))))
(assert (forall ((?v0 S23)) (=> (forall ((?v1 S26) (?v2 S14) (?v3 S8) (?v4 S3)) (=> (= ?v0 (f39 (f40 f41 ?v1) (f42 (f43 f44 ?v2) (f45 (f46 f47 ?v3) ?v4)))) false)) false)))
(assert (forall ((?v0 S24) (?v1 S23)) (=> (forall ((?v2 S26) (?v3 S14) (?v4 S8) (?v5 S3)) (= (f53 ?v0 (f39 (f40 f41 ?v2) (f42 (f43 f44 ?v3) (f45 (f46 f47 ?v4) ?v5)))) f1)) (= (f53 ?v0 ?v1) f1))))
(assert (forall ((?v0 S24)) (= (forall ((?v1 S23)) (= (f53 ?v0 ?v1) f1)) (forall ((?v1 S26) (?v2 S26)) (= (f53 ?v0 (f39 (f40 f41 ?v1) ?v2)) f1)))))
(assert (forall ((?v0 S33)) (= (forall ((?v1 S26)) (= (f54 ?v0 ?v1) f1)) (forall ((?v1 S14) (?v2 S29)) (= (f54 ?v0 (f42 (f43 f44 ?v1) ?v2)) f1)))))
(assert (forall ((?v0 S34)) (= (forall ((?v1 S29)) (= (f55 ?v0 ?v1) f1)) (forall ((?v1 S8) (?v2 S3)) (= (f55 ?v0 (f45 (f46 f47 ?v1) ?v2)) f1)))))
(assert (forall ((?v0 S26) (?v1 S26) (?v2 S26) (?v3 S26)) (= (= (f39 (f40 f41 ?v0) ?v1) (f39 (f40 f41 ?v2) ?v3)) (and (= ?v0 ?v2) (= ?v1 ?v3)))))
(assert (forall ((?v0 S14) (?v1 S29) (?v2 S14) (?v3 S29)) (= (= (f42 (f43 f44 ?v0) ?v1) (f42 (f43 f44 ?v2) ?v3)) (and (= ?v0 ?v2) (= ?v1 ?v3)))))
(assert (forall ((?v0 S8) (?v1 S3) (?v2 S8) (?v3 S3)) (= (= (f45 (f46 f47 ?v0) ?v1) (f45 (f46 f47 ?v2) ?v3)) (and (= ?v0 ?v2) (= ?v1 ?v3)))))
(assert (forall ((?v0 S26) (?v1 S26) (?v2 S26) (?v3 S26)) (=> (= (f39 (f40 f41 ?v0) ?v1) (f39 (f40 f41 ?v2) ?v3)) (=> (=> (= ?v0 ?v2) (=> (= ?v1 ?v3) false)) false))))
(assert (forall ((?v0 S14) (?v1 S29) (?v2 S14) (?v3 S29)) (=> (= (f42 (f43 f44 ?v0) ?v1) (f42 (f43 f44 ?v2) ?v3)) (=> (=> (= ?v0 ?v2) (=> (= ?v1 ?v3) false)) false))))
(assert (forall ((?v0 S8) (?v1 S3) (?v2 S8) (?v3 S3)) (=> (= (f45 (f46 f47 ?v0) ?v1) (f45 (f46 f47 ?v2) ?v3)) (=> (=> (= ?v0 ?v2) (=> (= ?v1 ?v3) false)) false))))
(assert (forall ((?v0 S7) (?v1 S8) (?v2 S5) (?v3 S14) (?v4 S13) (?v5 S5)) (=> (= (f32 ?v0 ?v1 ?v2 ?v3 ?v4) f1) (=> (= (f51 ?v2 ?v5) f1) (= (f32 ?v0 ?v1 ?v5 ?v3 ?v4) f1)))))
(assert (forall ((?v0 S24) (?v1 S23)) (=> (forall ((?v2 S26) (?v3 S14) (?v4 S29)) (= (f53 ?v0 (f39 (f40 f41 ?v2) (f42 (f43 f44 ?v3) ?v4))) f1)) (= (f53 ?v0 ?v1) f1))))
(assert (forall ((?v0 S33) (?v1 S26)) (=> (forall ((?v2 S14) (?v3 S8) (?v4 S3)) (= (f54 ?v0 (f42 (f43 f44 ?v2) (f45 (f46 f47 ?v3) ?v4))) f1)) (= (f54 ?v0 ?v1) f1))))
(assert (forall ((?v0 S23)) (=> (forall ((?v1 S26) (?v2 S14) (?v3 S29)) (=> (= ?v0 (f39 (f40 f41 ?v1) (f42 (f43 f44 ?v2) ?v3))) false)) false)))
(assert (forall ((?v0 S26)) (=> (forall ((?v1 S14) (?v2 S8) (?v3 S3)) (=> (= ?v0 (f42 (f43 f44 ?v1) (f45 (f46 f47 ?v2) ?v3))) false)) false)))
(check-sat)
(exit)
